541.27,69.56,79.45
575.16,65.46,74.77
548.1,68.7,78.46
571.87,65.84,75.2
586.05,64.25,73.38
588.81,63.95,73.03
546.16,68.94,78.73
560.92,67.13,76.66
534.55,70.44,80.44
587.37,64.1,73.21
514.21,73.22,83.63
557.32,67.56,77.16
555.5,67.78,77.41
507.96,74.12,84.66
540.52,69.66,79.56
575.88,65.38,74.67
549.26,68.55,78.29
532.71,70.68,80.72
602.11,62.53,71.42
553.26,68.05,77.72
